benchmarks/bfuzz0/308501496012897229681344542932711328.smt2
(set-logic QF_FP)
(declare-const x0 (_ FloatingPoint 11 53))
(declare-const x1 (_ FloatingPoint 11 53))
(declare-const x2 (_ FloatingPoint 11 53))
(declare-const x3 (_ FloatingPoint 11 53))
(declare-const x4 (_ FloatingPoint 11 53))
(declare-const x5 (_ FloatingPoint 11 53))
(declare-const x6 (_ FloatingPoint 11 53))
(declare-const x7 (_ FloatingPoint 11 53))
(declare-const x8 (_ FloatingPoint 11 53))
(assert (fp.gt (fp.div RNE x5 x7) (fp.add RNE x2 x0)))
(assert (fp.lt (fp.add RNE x5 x5) (fp.add RNE x5 x3)))
(assert (fp.lt (fp.neg x7) (fp.neg x8)))
(assert (fp.geq (fp.mul RNE x0 x6) (fp.div RNE x6 x8)))
(check-sat)
