db/data/308501496012897229681344542932711328.z3.out
sat
-------------------
1693.893731033
